12178.0 1410168.0 
12213.0 1407460.0 
12217.0 1405206.0 
12299.0 1395678.0 
12236.0 1401062.0 
12168.0 1414256.0 
12274.0 1397952.0 
12154.0 1421942.0 
12310.0 1391753.0 
12411.0 1387605.0 
12296.0 1396486.0 
